

	4777385.0	180000.0
	4835465.0	165000.0
	4863588.0	150000.0
	4922636.0	135000.0
	4932494.0	120000.0
	4933262.0	105000.0
	4948083.0	90000.0
	5005173.0	60000.0


	4676504.0	210000.0
	4765001.0	150000.0
	4837179.0	120000.0
	4875889.0	75000.0
	4966386.0	60000.0


	4580870.0	315000.0
	4628782.0	255000.0
	4676504.0	210000.0
	4765001.0	150000.0
	4802612.0	90000.0
	4875889.0	75000.0
	4876409.0	60000.0


